s = array1d(1..225, [0, 7, 6, 0, 3, 0, 0, 4, 0, 10, 0, 0, 0, 12, 14, 0, 0, 0, 0, 0, 5, 12, 0, 7, 0, 11, 8, 10, 14, 0, 4, 8, 0, 0, 7, 6, 0, 0, 5, 0, 0, 0, 0, 10, 0, 10, 0, 7, 11, 2, 0, 8, 0, 1, 0, 0, 0, 9, 0, 0, 0, 0, 8, 0, 0, 0, 0, 1, 9, 0, 13, 7, 4, 0, 5, 5, 11, 10, 6, 0, 0, 0, 0, 0, 12, 3, 14, 0, 0, 0, 0, 0, 2, 8, 6, 10, 9, 0, 0, 0, 0, 0, 7, 0, 4, 11, 0, 9, 0, 0, 1, 4, 12, 0, 14, 0, 10, 0, 0, 0, 0, 0, 0, 0, 0, 7, 5, 2, 3, 0, 4, 0, 8, 9, 0, 0, 12, 0, 7, 0, 0, 0, 0, 0, 11, 5, 2, 0, 0, 10, 0, 4, 14, 0, 0, 0, 3, 0, 0, 0, 6, 1, 0, 0, 12, 0, 0, 0, 1, 0, 0, 6, 11, 2, 5, 0, 0, 0, 3, 0, 2, 0, 0, 0, 0, 0, 0, 14, 0, 0, 9, 0, 3, 6, 1, 14, 0, 0, 0, 12, 4, 0, 6, 0, 7, 0, 13, 0, 8, 0, 8, 1, 11, 9, 10, 0, 0, 0, 0, 13, 0, 0, 0, 0, 3]);
n = 15;
